Route #1: 34 36 39 38 37 35 31 33 32
Route #2: 20 49 52 50 51 48 45 46 47
Route #3: 43 42 44 40 41
Route #4: 57 59 60 58 56 53 54 55
Route #5: 69 66 68 64 61 72 74 62 65 67
Route #6: 81 78 76 71 70 73 77 79 80 63
Route #7: 90 87 86 83 82 84 85 88 89 91
Route #8: 3 99 100 97 93 92 94 95 96 98
Route #9: 75 1 2 4 6 9 11 8 7 5
Route #10: 10 12 14 16 15 19 18 17 13
Route #11: 21 22 25 24 27 29 30 28 26 23
Cost 865
